c FILE: large2.graph
c
c SOURCE: DAP2
c
p edge 100 3428
e 28 75
e 28 50
e 28 15
e 28 44
e 28 12
e 28 61
e 28 11
e 28 6
e 28 9
e 28 17
e 28 29
e 28 18
e 28 16
e 28 79
e 28 78
e 28 31
e 28 35
e 28 36
e 28 8
e 28 80
e 28 83
e 28 58
e 28 40
e 28 2
e 28 92
e 28 25
e 28 38
e 28 87
e 28 72
e 28 0
e 28 14
e 28 45
e 28 24
e 28 3
e 28 64
e 28 33
e 28 94
e 28 56
e 28 97
e 28 10
e 28 82
e 28 67
e 28 57
e 28 86
e 28 62
e 28 13
e 28 63
e 28 20
e 28 4
e 28 77
e 28 42
e 28 91
e 28 69
e 28 5
e 28 70
e 28 84
e 28 65
e 28 53
e 28 95
e 28 27
e 28 74
e 28 1
e 28 68
e 28 88
e 28 51
e 28 59
e 28 76
e 28 46
e 28 85
e 28 52
e 28 73
e 75 30
e 75 15
e 75 44
e 75 90
e 75 81
e 75 6
e 75 17
e 75 29
e 75 54
e 75 79
e 75 78
e 75 35
e 75 36
e 75 89
e 75 8
e 75 83
e 75 58
e 75 2
e 75 92
e 75 25
e 75 38
e 75 21
e 75 87
e 75 72
e 75 24
e 75 93
e 75 3
e 75 64
e 75 33
e 75 98
e 75 94
e 75 56
e 75 99
e 75 97
e 75 10
e 75 71
e 75 37
e 75 13
e 75 63
e 75 32
e 75 47
e 75 4
e 75 77
e 75 96
e 75 34
e 75 42
e 75 91
e 75 69
e 75 5
e 75 70
e 75 84
e 75 66
e 75 55
e 75 26
e 75 53
e 75 95
e 75 27
e 75 23
e 75 39
e 75 68
e 75 88
e 75 7
e 75 51
e 75 60
e 75 76
e 75 52
e 75 22
e 75 41
e 50 30
e 50 15
e 50 44
e 50 90
e 50 12
e 50 61
e 50 81
e 50 6
e 50 9
e 50 17
e 50 29
e 50 18
e 50 16
e 50 79
e 50 78
e 50 31
e 50 35
e 50 36
e 50 8
e 50 49
e 50 80
e 50 58
e 50 40
e 50 2
e 50 19
e 50 25
e 50 21
e 50 72
e 50 0
e 50 14
e 50 24
e 50 93
e 50 3
e 50 64
e 50 33
e 50 98
e 50 94
e 50 56
e 50 99
e 50 97
e 50 82
e 50 71
e 50 37
e 50 57
e 50 86
e 50 62
e 50 13
e 50 63
e 50 20
e 50 32
e 50 47
e 50 4
e 50 96
e 50 34
e 50 42
e 50 91
e 50 69
e 50 70
e 50 84
e 50 26
e 50 65
e 50 53
e 50 95
e 50 27
e 50 39
e 50 88
e 50 7
e 50 60
e 50 76
e 50 46
e 50 85
e 50 52
e 50 73
e 30 15
e 30 44
e 30 90
e 30 12
e 30 61
e 30 81
e 30 17
e 30 16
e 30 54
e 30 78
e 30 31
e 30 43
e 30 35
e 30 36
e 30 89
e 30 49
e 30 58
e 30 40
e 30 2
e 30 92
e 30 38
e 30 72
e 30 0
e 30 14
e 30 45
e 30 93
e 30 64
e 30 94
e 30 99
e 30 97
e 30 82
e 30 57
e 30 86
e 30 62
e 30 13
e 30 63
e 30 20
e 30 32
e 30 4
e 30 34
e 30 69
e 30 70
e 30 84
e 30 66
e 30 55
e 30 26
e 30 65
e 30 74
e 30 23
e 30 39
e 30 1
e 30 88
e 30 46
e 30 85
e 30 52
e 30 22
e 30 41
e 15 90
e 15 61
e 15 11
e 15 81
e 15 9
e 15 17
e 15 29
e 15 16
e 15 78
e 15 31
e 15 43
e 15 35
e 15 36
e 15 89
e 15 49
e 15 80
e 15 83
e 15 19
e 15 21
e 15 87
e 15 72
e 15 45
e 15 93
e 15 48
e 15 3
e 15 64
e 15 33
e 15 98
e 15 56
e 15 97
e 15 10
e 15 82
e 15 71
e 15 37
e 15 86
e 15 20
e 15 32
e 15 47
e 15 4
e 15 96
e 15 34
e 15 42
e 15 91
e 15 69
e 15 5
e 15 70
e 15 84
e 15 66
e 15 26
e 15 65
e 15 95
e 15 27
e 15 74
e 15 39
e 15 1
e 15 68
e 15 88
e 15 51
e 15 76
e 15 46
e 15 52
e 15 22
e 15 73
e 15 41
e 44 90
e 44 12
e 44 61
e 44 11
e 44 81
e 44 9
e 44 17
e 44 29
e 44 18
e 44 54
e 44 79
e 44 78
e 44 31
e 44 35
e 44 36
e 44 8
e 44 49
e 44 80
e 44 83
e 44 58
e 44 40
e 44 2
e 44 92
e 44 25
e 44 21
e 44 87
e 44 0
e 44 24
e 44 48
e 44 3
e 44 64
e 44 98
e 44 94
e 44 56
e 44 99
e 44 97
e 44 10
e 44 82
e 44 67
e 44 71
e 44 37
e 44 57
e 44 86
e 44 62
e 44 13
e 44 63
e 44 20
e 44 32
e 44 47
e 44 4
e 44 77
e 44 42
e 44 69
e 44 5
e 44 70
e 44 55
e 44 26
e 44 65
e 44 53
e 44 23
e 44 1
e 44 68
e 44 88
e 44 7
e 44 51
e 44 59
e 44 76
e 44 46
e 44 52
e 44 73
e 90 12
e 90 81
e 90 6
e 90 9
e 90 16
e 90 79
e 90 78
e 90 31
e 90 43
e 90 35
e 90 36
e 90 49
e 90 80
e 90 83
e 90 2
e 90 19
e 90 92
e 90 25
e 90 38
e 90 21
e 90 87
e 90 72
e 90 0
e 90 14
e 90 45
e 90 24
e 90 48
e 90 3
e 90 33
e 90 98
e 90 94
e 90 56
e 90 99
e 90 97
e 90 71
e 90 37
e 90 57
e 90 86
e 90 63
e 90 20
e 90 32
e 90 4
e 90 96
e 90 34
e 90 42
e 90 91
e 90 69
e 90 5
e 90 84
e 90 55
e 90 26
e 90 53
e 90 95
e 90 74
e 90 23
e 90 39
e 90 1
e 90 88
e 90 51
e 90 60
e 90 59
e 90 46
e 90 85
e 90 52
e 90 22
e 90 73
e 12 11
e 12 81
e 12 6
e 12 9
e 12 29
e 12 18
e 12 16
e 12 54
e 12 78
e 12 31
e 12 43
e 12 35
e 12 8
e 12 49
e 12 80
e 12 58
e 12 40
e 12 19
e 12 92
e 12 25
e 12 38
e 12 21
e 12 87
e 12 72
e 12 0
e 12 14
e 12 45
e 12 24
e 12 93
e 12 3
e 12 64
e 12 33
e 12 94
e 12 56
e 12 99
e 12 97
e 12 10
e 12 67
e 12 57
e 12 86
e 12 62
e 12 13
e 12 20
e 12 32
e 12 47
e 12 4
e 12 77
e 12 96
e 12 34
e 12 42
e 12 91
e 12 69
e 12 5
e 12 55
e 12 65
e 12 53
e 12 95
e 12 27
e 12 74
e 12 23
e 12 39
e 12 1
e 12 68
e 12 7
e 12 51
e 12 60
e 12 59
e 12 76
e 12 85
e 12 52
e 12 73
e 12 41
e 61 11
e 61 81
e 61 6
e 61 17
e 61 29
e 61 16
e 61 54
e 61 43
e 61 35
e 61 36
e 61 49
e 61 80
e 61 83
e 61 58
e 61 40
e 61 2
e 61 19
e 61 92
e 61 25
e 61 21
e 61 87
e 61 72
e 61 0
e 61 14
e 61 45
e 61 93
e 61 48
e 61 3
e 61 64
e 61 33
e 61 98
e 61 94
e 61 10
e 61 82
e 61 67
e 61 71
e 61 37
e 61 57
e 61 86
e 61 62
e 61 13
e 61 63
e 61 20
e 61 32
e 61 47
e 61 4
e 61 77
e 61 96
e 61 34
e 61 42
e 61 69
e 61 5
e 61 70
e 61 84
e 61 66
e 61 55
e 61 26
e 61 65
e 61 95
e 61 27
e 61 74
e 61 23
e 61 1
e 61 60
e 61 59
e 61 76
e 61 85
e 61 52
e 61 73
e 61 41
e 11 81
e 11 6
e 11 17
e 11 18
e 11 54
e 11 78
e 11 31
e 11 43
e 11 89
e 11 8
e 11 80
e 11 58
e 11 40
e 11 92
e 11 25
e 11 21
e 11 87
e 11 72
e 11 0
e 11 14
e 11 24
e 11 93
e 11 48
e 11 64
e 11 33
e 11 94
e 11 56
e 11 10
e 11 82
e 11 67
e 11 71
e 11 37
e 11 57
e 11 86
e 11 13
e 11 32
e 11 47
e 11 77
e 11 96
e 11 34
e 11 42
e 11 91
e 11 5
e 11 66
e 11 55
e 11 26
e 11 65
e 11 53
e 11 95
e 11 74
e 11 23
e 11 1
e 11 68
e 11 88
e 11 7
e 11 51
e 11 60
e 11 76
e 11 46
e 11 85
e 11 73
e 81 9
e 81 29
e 81 18
e 81 54
e 81 79
e 81 31
e 81 43
e 81 89
e 81 8
e 81 83
e 81 40
e 81 2
e 81 25
e 81 38
e 81 21
e 81 87
e 81 72
e 81 0
e 81 14
e 81 45
e 81 24
e 81 48
e 81 3
e 81 98
e 81 56
e 81 99
e 81 97
e 81 10
e 81 82
e 81 67
e 81 71
e 81 37
e 81 57
e 81 62
e 81 63
e 81 20
e 81 47
e 81 77
e 81 96
e 81 42
e 81 91
e 81 69
e 81 5
e 81 70
e 81 84
e 81 66
e 81 55
e 81 26
e 81 65
e 81 53
e 81 95
e 81 23
e 81 39
e 81 1
e 81 68
e 81 88
e 81 7
e 81 60
e 81 59
e 81 46
e 81 85
e 81 52
e 81 73
e 81 41
e 6 9
e 6 18
e 6 54
e 6 78
e 6 31
e 6 43
e 6 35
e 6 36
e 6 8
e 6 49
e 6 80
e 6 83
e 6 58
e 6 2
e 6 92
e 6 25
e 6 38
e 6 21
e 6 72
e 6 0
e 6 45
e 6 24
e 6 48
e 6 3
e 6 64
e 6 33
e 6 94
e 6 56
e 6 99
e 6 10
e 6 67
e 6 37
e 6 57
e 6 62
e 6 32
e 6 47
e 6 4
e 6 77
e 6 96
e 6 34
e 6 42
e 6 91
e 6 69
e 6 5
e 6 70
e 6 84
e 6 66
e 6 26
e 6 65
e 6 95
e 6 27
e 6 23
e 6 1
e 6 68
e 6 7
e 6 51
e 6 59
e 6 76
e 6 52
e 9 17
e 9 29
e 9 18
e 9 54
e 9 79
e 9 78
e 9 31
e 9 43
e 9 35
e 9 80
e 9 83
e 9 58
e 9 40
e 9 2
e 9 92
e 9 25
e 9 21
e 9 72
e 9 14
e 9 24
e 9 93
e 9 48
e 9 3
e 9 64
e 9 33
e 9 98
e 9 94
e 9 10
e 9 82
e 9 67
e 9 71
e 9 37
e 9 57
e 9 86
e 9 62
e 9 13
e 9 20
e 9 34
e 9 42
e 9 69
e 9 5
e 9 70
e 9 84
e 9 66
e 9 55
e 9 26
e 9 74
e 9 39
e 9 68
e 9 88
e 9 7
e 9 51
e 9 59
e 9 46
e 9 85
e 9 52
e 17 29
e 17 79
e 17 31
e 17 43
e 17 36
e 17 89
e 17 49
e 17 80
e 17 83
e 17 2
e 17 19
e 17 92
e 17 25
e 17 21
e 17 87
e 17 0
e 17 14
e 17 24
e 17 93
e 17 48
e 17 64
e 17 33
e 17 94
e 17 99
e 17 97
e 17 82
e 17 71
e 17 37
e 17 57
e 17 86
e 17 62
e 17 13
e 17 63
e 17 20
e 17 32
e 17 47
e 17 4
e 17 77
e 17 96
e 17 34
e 17 42
e 17 69
e 17 5
e 17 70
e 17 84
e 17 55
e 17 26
e 17 27
e 17 23
e 17 39
e 17 1
e 17 68
e 17 88
e 17 59
e 17 46
e 17 52
e 17 22
e 17 73
e 29 18
e 29 16
e 29 79
e 29 78
e 29 31
e 29 35
e 29 89
e 29 8
e 29 49
e 29 83
e 29 58
e 29 2
e 29 92
e 29 25
e 29 21
e 29 87
e 29 0
e 29 45
e 29 93
e 29 48
e 29 64
e 29 33
e 29 98
e 29 94
e 29 56
e 29 99
e 29 97
e 29 10
e 29 82
e 29 71
e 29 37
e 29 62
e 29 13
e 29 63
e 29 20
e 29 47
e 29 4
e 29 77
e 29 96
e 29 34
e 29 42
e 29 91
e 29 5
e 29 70
e 29 66
e 29 26
e 29 65
e 29 53
e 29 27
e 29 74
e 29 23
e 29 39
e 29 1
e 29 68
e 29 60
e 29 59
e 29 76
e 29 85
e 29 22
e 29 73
e 18 16
e 18 54
e 18 79
e 18 31
e 18 43
e 18 89
e 18 8
e 18 49
e 18 83
e 18 58
e 18 40
e 18 2
e 18 19
e 18 92
e 18 25
e 18 38
e 18 87
e 18 72
e 18 0
e 18 14
e 18 45
e 18 93
e 18 3
e 18 98
e 18 94
e 18 99
e 18 97
e 18 10
e 18 82
e 18 86
e 18 62
e 18 13
e 18 63
e 18 20
e 18 4
e 18 77
e 18 34
e 18 42
e 18 91
e 18 69
e 18 5
e 18 70
e 18 84
e 18 66
e 18 55
e 18 26
e 18 65
e 18 53
e 18 27
e 18 74
e 18 39
e 18 88
e 18 7
e 18 51
e 18 59
e 18 76
e 18 46
e 18 52
e 18 73
e 18 41
e 16 79
e 16 78
e 16 31
e 16 35
e 16 89
e 16 49
e 16 80
e 16 83
e 16 58
e 16 40
e 16 2
e 16 19
e 16 21
e 16 72
e 16 45
e 16 24
e 16 93
e 16 48
e 16 3
e 16 98
e 16 10
e 16 82
e 16 37
e 16 57
e 16 63
e 16 20
e 16 4
e 16 77
e 16 69
e 16 5
e 16 70
e 16 84
e 16 65
e 16 53
e 16 95
e 16 27
e 16 74
e 16 23
e 16 39
e 16 68
e 16 7
e 16 51
e 16 60
e 16 59
e 16 46
e 16 85
e 16 52
e 16 73
e 16 41
e 54 79
e 54 78
e 54 31
e 54 43
e 54 35
e 54 89
e 54 8
e 54 80
e 54 83
e 54 58
e 54 40
e 54 2
e 54 19
e 54 92
e 54 38
e 54 21
e 54 72
e 54 0
e 54 14
e 54 24
e 54 93
e 54 48
e 54 3
e 54 33
e 54 98
e 54 94
e 54 99
e 54 97
e 54 82
e 54 67
e 54 71
e 54 62
e 54 13
e 54 63
e 54 20
e 54 4
e 54 77
e 54 96
e 54 42
e 54 5
e 54 70
e 54 84
e 54 66
e 54 55
e 54 26
e 54 53
e 54 95
e 54 27
e 54 1
e 54 88
e 54 7
e 54 51
e 54 60
e 54 59
e 54 76
e 54 46
e 54 52
e 54 22
e 54 73
e 54 41
e 79 78
e 79 31
e 79 43
e 79 36
e 79 89
e 79 49
e 79 80
e 79 83
e 79 58
e 79 40
e 79 19
e 79 92
e 79 25
e 79 38
e 79 21
e 79 87
e 79 72
e 79 0
e 79 14
e 79 24
e 79 93
e 79 48
e 79 64
e 79 33
e 79 98
e 79 94
e 79 56
e 79 99
e 79 82
e 79 67
e 79 37
e 79 57
e 79 86
e 79 62
e 79 63
e 79 20
e 79 32
e 79 47
e 79 4
e 79 77
e 79 96
e 79 34
e 79 42
e 79 91
e 79 5
e 79 55
e 79 65
e 79 53
e 79 27
e 79 23
e 79 39
e 79 68
e 79 7
e 79 51
e 79 60
e 79 59
e 79 76
e 79 46
e 79 85
e 79 52
e 79 22
e 79 73
e 79 41
e 78 31
e 78 43
e 78 35
e 78 36
e 78 8
e 78 49
e 78 83
e 78 58
e 78 40
e 78 19
e 78 92
e 78 25
e 78 38
e 78 87
e 78 72
e 78 45
e 78 93
e 78 3
e 78 33
e 78 56
e 78 99
e 78 97
e 78 82
e 78 67
e 78 57
e 78 62
e 78 13
e 78 63
e 78 20
e 78 32
e 78 4
e 78 77
e 78 42
e 78 91
e 78 69
e 78 5
e 78 70
e 78 84
e 78 66
e 78 55
e 78 26
e 78 95
e 78 27
e 78 74
e 78 39
e 78 1
e 78 68
e 78 88
e 78 7
e 78 60
e 78 76
e 78 46
e 78 85
e 78 52
e 78 73
e 78 41
e 31 43
e 31 36
e 31 89
e 31 49
e 31 80
e 31 58
e 31 40
e 31 19
e 31 25
e 31 21
e 31 87
e 31 72
e 31 0
e 31 14
e 31 45
e 31 24
e 31 93
e 31 3
e 31 64
e 31 33
e 31 98
e 31 94
e 31 56
e 31 97
e 31 10
e 31 82
e 31 67
e 31 71
e 31 86
e 31 13
e 31 63
e 31 20
e 31 32
e 31 47
e 31 4
e 31 96
e 31 91
e 31 69
e 31 5
e 31 70
e 31 66
e 31 55
e 31 26
e 31 65
e 31 53
e 31 95
e 31 27
e 31 23
e 31 1
e 31 88
e 31 7
e 31 51
e 31 60
e 31 59
e 31 85
e 31 52
e 31 22
e 31 73
e 43 35
e 43 36
e 43 89
e 43 8
e 43 49
e 43 58
e 43 19
e 43 92
e 43 25
e 43 38
e 43 21
e 43 87
e 43 72
e 43 0
e 43 14
e 43 24
e 43 93
e 43 48
e 43 3
e 43 64
e 43 94
e 43 56
e 43 99
e 43 97
e 43 10
e 43 82
e 43 67
e 43 71
e 43 37
e 43 57
e 43 86
e 43 13
e 43 20
e 43 4
e 43 77
e 43 96
e 43 34
e 43 91
e 43 69
e 43 5
e 43 70
e 43 84
e 43 66
e 43 26
e 43 53
e 43 23
e 43 1
e 43 7
e 43 51
e 43 60
e 43 59
e 43 76
e 43 85
e 43 52
e 43 73
e 43 41
e 35 36
e 35 89
e 35 8
e 35 80
e 35 83
e 35 58
e 35 40
e 35 2
e 35 19
e 35 92
e 35 25
e 35 38
e 35 21
e 35 87
e 35 45
e 35 24
e 35 3
e 35 64
e 35 98
e 35 94
e 35 99
e 35 97
e 35 10
e 35 67
e 35 62
e 35 63
e 35 20
e 35 32
e 35 47
e 35 4
e 35 77
e 35 96
e 35 34
e 35 91
e 35 69
e 35 5
e 35 70
e 35 84
e 35 53
e 35 27
e 35 74
e 35 23
e 35 39
e 35 1
e 35 88
e 35 7
e 35 51
e 35 59
e 35 76
e 35 46
e 35 85
e 35 52
e 35 22
e 35 73
e 35 41
e 36 89
e 36 8
e 36 58
e 36 40
e 36 2
e 36 19
e 36 92
e 36 25
e 36 21
e 36 87
e 36 0
e 36 45
e 36 24
e 36 3
e 36 33
e 36 98
e 36 94
e 36 56
e 36 99
e 36 97
e 36 10
e 36 67
e 36 71
e 36 37
e 36 57
e 36 86
e 36 13
e 36 63
e 36 47
e 36 4
e 36 77
e 36 34
e 36 42
e 36 69
e 36 5
e 36 70
e 36 84
e 36 66
e 36 26
e 36 53
e 36 95
e 36 27
e 36 74
e 36 23
e 36 39
e 36 1
e 36 88
e 36 60
e 36 59
e 36 52
e 36 22
e 36 73
e 36 41
e 89 49
e 89 80
e 89 83
e 89 58
e 89 40
e 89 2
e 89 19
e 89 92
e 89 21
e 89 87
e 89 72
e 89 14
e 89 45
e 89 24
e 89 93
e 89 48
e 89 64
e 89 33
e 89 98
e 89 94
e 89 56
e 89 99
e 89 97
e 89 10
e 89 82
e 89 71
e 89 37
e 89 57
e 89 86
e 89 62
e 89 63
e 89 96
e 89 34
e 89 69
e 89 70
e 89 66
e 89 55
e 89 26
e 89 65
e 89 53
e 89 95
e 89 74
e 89 23
e 89 1
e 89 68
e 89 88
e 89 51
e 89 76
e 89 46
e 89 85
e 89 52
e 89 22
e 89 73
e 89 41
e 8 49
e 8 80
e 8 40
e 8 2
e 8 19
e 8 25
e 8 38
e 8 21
e 8 87
e 8 72
e 8 0
e 8 14
e 8 45
e 8 93
e 8 48
e 8 3
e 8 64
e 8 33
e 8 94
e 8 56
e 8 97
e 8 82
e 8 71
e 8 57
e 8 86
e 8 62
e 8 63
e 8 20
e 8 32
e 8 47
e 8 4
e 8 34
e 8 91
e 8 5
e 8 66
e 8 55
e 8 26
e 8 53
e 8 74
e 8 23
e 8 39
e 8 1
e 8 7
e 8 60
e 8 76
e 8 46
e 8 85
e 8 52
e 8 73
e 49 80
e 49 83
e 49 2
e 49 19
e 49 25
e 49 38
e 49 21
e 49 87
e 49 0
e 49 14
e 49 24
e 49 93
e 49 48
e 49 3
e 49 98
e 49 56
e 49 99
e 49 10
e 49 71
e 49 37
e 49 57
e 49 86
e 49 62
e 49 63
e 49 20
e 49 32
e 49 47
e 49 4
e 49 96
e 49 34
e 49 42
e 49 91
e 49 5
e 49 70
e 49 66
e 49 26
e 49 65
e 49 95
e 49 27
e 49 74
e 49 1
e 49 51
e 49 59
e 49 76
e 49 52
e 49 22
e 49 73
e 49 41
e 80 83
e 80 58
e 80 40
e 80 19
e 80 92
e 80 25
e 80 38
e 80 87
e 80 72
e 80 0
e 80 45
e 80 24
e 80 48
e 80 3
e 80 64
e 80 33
e 80 98
e 80 56
e 80 99
e 80 97
e 80 10
e 80 82
e 80 67
e 80 37
e 80 57
e 80 86
e 80 62
e 80 13
e 80 63
e 80 20
e 80 32
e 80 47
e 80 4
e 80 77
e 80 96
e 80 34
e 80 42
e 80 91
e 80 69
e 80 5
e 80 66
e 80 26
e 80 65
e 80 53
e 80 95
e 80 27
e 80 74
e 80 23
e 80 39
e 80 68
e 80 7
e 80 51
e 80 60
e 80 59
e 80 76
e 80 52
e 80 22
e 80 41
e 83 58
e 83 40
e 83 2
e 83 19
e 83 92
e 83 38
e 83 21
e 83 0
e 83 14
e 83 48
e 83 98
e 83 56
e 83 99
e 83 10
e 83 82
e 83 67
e 83 37
e 83 57
e 83 86
e 83 62
e 83 13
e 83 47
e 83 77
e 83 96
e 83 34
e 83 42
e 83 91
e 83 5
e 83 84
e 83 66
e 83 55
e 83 26
e 83 65
e 83 95
e 83 74
e 83 23
e 83 39
e 83 1
e 83 88
e 83 7
e 83 59
e 83 76
e 83 46
e 83 22
e 58 40
e 58 92
e 58 25
e 58 38
e 58 21
e 58 0
e 58 14
e 58 24
e 58 93
e 58 3
e 58 94
e 58 56
e 58 82
e 58 71
e 58 57
e 58 86
e 58 62
e 58 13
e 58 63
e 58 20
e 58 32
e 58 47
e 58 4
e 58 96
e 58 42
e 58 5
e 58 70
e 58 84
e 58 55
e 58 26
e 58 65
e 58 53
e 58 95
e 58 27
e 58 39
e 58 1
e 58 7
e 58 51
e 58 60
e 58 59
e 58 76
e 58 46
e 58 52
e 58 22
e 58 41
e 40 19
e 40 92
e 40 25
e 40 38
e 40 72
e 40 14
e 40 93
e 40 48
e 40 64
e 40 94
e 40 56
e 40 10
e 40 67
e 40 71
e 40 57
e 40 86
e 40 13
e 40 63
e 40 20
e 40 32
e 40 47
e 40 4
e 40 77
e 40 34
e 40 91
e 40 69
e 40 5
e 40 70
e 40 84
e 40 55
e 40 26
e 40 53
e 40 95
e 40 27
e 40 39
e 40 1
e 40 88
e 40 7
e 40 51
e 40 60
e 40 76
e 40 85
e 40 73
e 40 41
e 2 19
e 2 92
e 2 25
e 2 21
e 2 87
e 2 72
e 2 0
e 2 14
e 2 24
e 2 93
e 2 48
e 2 3
e 2 56
e 2 82
e 2 67
e 2 71
e 2 37
e 2 57
e 2 62
e 2 13
e 2 63
e 2 47
e 2 4
e 2 77
e 2 42
e 2 91
e 2 69
e 2 5
e 2 70
e 2 84
e 2 66
e 2 55
e 2 26
e 2 65
e 2 53
e 2 95
e 2 27
e 2 23
e 2 39
e 2 1
e 2 68
e 2 51
e 2 60
e 2 59
e 2 76
e 2 85
e 2 52
e 2 22
e 2 73
e 2 41
e 19 92
e 19 25
e 19 38
e 19 21
e 19 87
e 19 72
e 19 0
e 19 14
e 19 45
e 19 48
e 19 3
e 19 33
e 19 98
e 19 56
e 19 99
e 19 82
e 19 67
e 19 71
e 19 57
e 19 86
e 19 62
e 19 13
e 19 63
e 19 20
e 19 32
e 19 47
e 19 4
e 19 77
e 19 96
e 19 42
e 19 91
e 19 69
e 19 5
e 19 70
e 19 84
e 19 55
e 19 65
e 19 53
e 19 27
e 19 74
e 19 23
e 19 39
e 19 1
e 19 88
e 19 7
e 19 51
e 19 60
e 19 59
e 19 76
e 19 46
e 19 22
e 19 73
e 92 25
e 92 38
e 92 21
e 92 87
e 92 72
e 92 0
e 92 24
e 92 93
e 92 3
e 92 64
e 92 33
e 92 98
e 92 94
e 92 99
e 92 97
e 92 10
e 92 82
e 92 67
e 92 37
e 92 57
e 92 86
e 92 62
e 92 13
e 92 63
e 92 20
e 92 32
e 92 47
e 92 4
e 92 96
e 92 91
e 92 5
e 92 70
e 92 84
e 92 55
e 92 53
e 92 95
e 92 74
e 92 39
e 92 88
e 92 7
e 92 51
e 92 60
e 92 59
e 92 76
e 92 46
e 92 22
e 25 38
e 25 21
e 25 72
e 25 0
e 25 45
e 25 24
e 25 93
e 25 64
e 25 98
e 25 56
e 25 99
e 25 97
e 25 82
e 25 67
e 25 71
e 25 37
e 25 57
e 25 86
e 25 62
e 25 13
e 25 63
e 25 20
e 25 32
e 25 4
e 25 77
e 25 42
e 25 91
e 25 5
e 25 70
e 25 55
e 25 26
e 25 65
e 25 95
e 25 27
e 25 74
e 25 23
e 25 39
e 25 68
e 25 88
e 25 7
e 25 60
e 25 59
e 25 46
e 25 85
e 25 52
e 25 22
e 25 41
e 38 0
e 38 24
e 38 93
e 38 48
e 38 64
e 38 33
e 38 98
e 38 94
e 38 56
e 38 99
e 38 82
e 38 67
e 38 71
e 38 37
e 38 86
e 38 62
e 38 63
e 38 20
e 38 32
e 38 4
e 38 96
e 38 34
e 38 42
e 38 91
e 38 5
e 38 70
e 38 84
e 38 66
e 38 53
e 38 95
e 38 74
e 38 23
e 38 39
e 38 1
e 38 51
e 38 60
e 38 59
e 38 22
e 38 73
e 38 41
e 21 87
e 21 72
e 21 0
e 21 14
e 21 45
e 21 48
e 21 33
e 21 98
e 21 56
e 21 99
e 21 97
e 21 10
e 21 67
e 21 37
e 21 62
e 21 20
e 21 32
e 21 4
e 21 77
e 21 96
e 21 42
e 21 5
e 21 70
e 21 66
e 21 55
e 21 26
e 21 65
e 21 95
e 21 23
e 21 39
e 21 88
e 21 7
e 21 60
e 21 59
e 21 76
e 21 46
e 21 52
e 21 22
e 21 73
e 21 41
e 87 72
e 87 24
e 87 93
e 87 48
e 87 3
e 87 64
e 87 33
e 87 94
e 87 56
e 87 97
e 87 82
e 87 67
e 87 71
e 87 37
e 87 57
e 87 62
e 87 13
e 87 63
e 87 32
e 87 47
e 87 77
e 87 34
e 87 42
e 87 91
e 87 69
e 87 84
e 87 66
e 87 55
e 87 65
e 87 53
e 87 74
e 87 23
e 87 39
e 87 68
e 87 7
e 87 59
e 87 76
e 87 46
e 87 85
e 87 52
e 87 22
e 87 73
e 87 41
e 72 0
e 72 14
e 72 45
e 72 24
e 72 93
e 72 48
e 72 64
e 72 33
e 72 94
e 72 99
e 72 67
e 72 71
e 72 37
e 72 57
e 72 86
e 72 13
e 72 20
e 72 32
e 72 47
e 72 4
e 72 77
e 72 96
e 72 34
e 72 42
e 72 91
e 72 69
e 72 5
e 72 70
e 72 66
e 72 55
e 72 26
e 72 95
e 72 74
e 72 23
e 72 39
e 72 1
e 72 51
e 72 60
e 72 59
e 72 46
e 72 85
e 72 22
e 72 73
e 72 41
e 0 14
e 0 45
e 0 93
e 0 48
e 0 3
e 0 98
e 0 94
e 0 56
e 0 99
e 0 97
e 0 10
e 0 67
e 0 71
e 0 86
e 0 62
e 0 13
e 0 20
e 0 47
e 0 4
e 0 77
e 0 34
e 0 42
e 0 91
e 0 69
e 0 70
e 0 84
e 0 26
e 0 53
e 0 95
e 0 27
e 0 74
e 0 39
e 0 1
e 0 68
e 0 88
e 0 51
e 0 60
e 0 59
e 0 76
e 0 46
e 0 52
e 0 22
e 0 41
e 14 45
e 14 93
e 14 3
e 14 64
e 14 33
e 14 94
e 14 56
e 14 99
e 14 97
e 14 10
e 14 82
e 14 67
e 14 71
e 14 37
e 14 57
e 14 63
e 14 20
e 14 32
e 14 47
e 14 77
e 14 96
e 14 34
e 14 42
e 14 91
e 14 69
e 14 70
e 14 55
e 14 26
e 14 65
e 14 95
e 14 27
e 14 74
e 14 23
e 14 39
e 14 1
e 14 68
e 14 88
e 14 7
e 14 51
e 14 60
e 14 76
e 14 46
e 14 22
e 14 41
e 45 93
e 45 3
e 45 64
e 45 33
e 45 98
e 45 56
e 45 99
e 45 97
e 45 10
e 45 82
e 45 67
e 45 71
e 45 37
e 45 57
e 45 86
e 45 13
e 45 63
e 45 32
e 45 47
e 45 4
e 45 77
e 45 34
e 45 42
e 45 66
e 45 26
e 45 53
e 45 95
e 45 27
e 45 74
e 45 23
e 45 39
e 45 1
e 45 68
e 45 51
e 45 60
e 45 59
e 45 76
e 45 85
e 45 52
e 45 41
e 24 93
e 24 48
e 24 64
e 24 98
e 24 94
e 24 97
e 24 71
e 24 37
e 24 62
e 24 63
e 24 20
e 24 32
e 24 47
e 24 4
e 24 77
e 24 96
e 24 34
e 24 42
e 24 69
e 24 70
e 24 66
e 24 55
e 24 26
e 24 65
e 24 53
e 24 95
e 24 27
e 24 74
e 24 23
e 24 1
e 24 88
e 24 7
e 24 51
e 24 60
e 24 76
e 24 46
e 24 22
e 24 41
e 93 3
e 93 64
e 93 98
e 93 94
e 93 97
e 93 82
e 93 67
e 93 37
e 93 57
e 93 62
e 93 13
e 93 63
e 93 20
e 93 32
e 93 4
e 93 77
e 93 42
e 93 91
e 93 69
e 93 5
e 93 70
e 93 55
e 93 65
e 93 95
e 93 27
e 93 74
e 93 23
e 93 39
e 93 1
e 93 68
e 93 88
e 93 7
e 93 51
e 93 60
e 93 59
e 93 76
e 93 46
e 93 85
e 93 52
e 93 22
e 93 41
e 48 3
e 48 64
e 48 33
e 48 99
e 48 10
e 48 82
e 48 67
e 48 71
e 48 57
e 48 62
e 48 13
e 48 63
e 48 20
e 48 32
e 48 47
e 48 4
e 48 96
e 48 34
e 48 42
e 48 91
e 48 69
e 48 5
e 48 84
e 48 66
e 48 55
e 48 26
e 48 65
e 48 53
e 48 95
e 48 27
e 48 74
e 48 23
e 48 39
e 48 1
e 48 68
e 48 88
e 48 7
e 48 51
e 48 59
e 48 76
e 48 46
e 48 73
e 48 41
e 3 64
e 3 33
e 3 98
e 3 94
e 3 56
e 3 99
e 3 97
e 3 10
e 3 71
e 3 57
e 3 86
e 3 13
e 3 63
e 3 20
e 3 32
e 3 77
e 3 96
e 3 34
e 3 42
e 3 91
e 3 69
e 3 5
e 3 70
e 3 84
e 3 55
e 3 53
e 3 23
e 3 1
e 3 68
e 3 88
e 3 7
e 3 51
e 3 22
e 64 99
e 64 97
e 64 10
e 64 82
e 64 67
e 64 71
e 64 37
e 64 86
e 64 62
e 64 20
e 64 47
e 64 4
e 64 96
e 64 42
e 64 5
e 64 70
e 64 84
e 64 55
e 64 26
e 64 53
e 64 27
e 64 74
e 64 23
e 64 39
e 64 1
e 64 68
e 64 88
e 64 7
e 64 51
e 64 60
e 64 59
e 64 76
e 64 46
e 64 85
e 64 52
e 64 22
e 64 73
e 64 41
e 33 94
e 33 56
e 33 99
e 33 97
e 33 10
e 33 82
e 33 67
e 33 71
e 33 37
e 33 86
e 33 62
e 33 13
e 33 63
e 33 20
e 33 32
e 33 47
e 33 4
e 33 77
e 33 34
e 33 42
e 33 69
e 33 5
e 33 70
e 33 84
e 33 95
e 33 27
e 33 74
e 33 1
e 33 68
e 33 88
e 33 7
e 33 51
e 33 60
e 33 59
e 33 76
e 33 85
e 33 52
e 33 22
e 33 73
e 98 94
e 98 99
e 98 97
e 98 82
e 98 71
e 98 37
e 98 57
e 98 62
e 98 13
e 98 47
e 98 4
e 98 77
e 98 96
e 98 34
e 98 42
e 98 91
e 98 69
e 98 5
e 98 70
e 98 66
e 98 65
e 98 53
e 98 23
e 98 39
e 98 1
e 98 88
e 98 7
e 98 60
e 98 59
e 98 76
e 98 46
e 98 22
e 98 73
e 98 41
e 94 56
e 94 99
e 94 97
e 94 10
e 94 82
e 94 67
e 94 71
e 94 37
e 94 86
e 94 62
e 94 63
e 94 47
e 94 4
e 94 77
e 94 96
e 94 34
e 94 42
e 94 69
e 94 70
e 94 84
e 94 66
e 94 65
e 94 53
e 94 23
e 94 1
e 94 88
e 94 7
e 94 51
e 94 60
e 94 76
e 94 85
e 94 52
e 94 22
e 56 97
e 56 82
e 56 37
e 56 86
e 56 62
e 56 63
e 56 20
e 56 96
e 56 34
e 56 42
e 56 91
e 56 69
e 56 5
e 56 70
e 56 84
e 56 66
e 56 55
e 56 26
e 56 65
e 56 95
e 56 27
e 56 74
e 56 23
e 56 88
e 56 51
e 56 60
e 56 59
e 56 76
e 56 46
e 56 52
e 56 22
e 56 73
e 56 41
e 99 97
e 99 71
e 99 37
e 99 57
e 99 13
e 99 63
e 99 20
e 99 4
e 99 77
e 99 34
e 99 42
e 99 91
e 99 69
e 99 5
e 99 70
e 99 84
e 99 66
e 99 55
e 99 26
e 99 53
e 99 27
e 99 74
e 99 23
e 99 1
e 99 88
e 99 51
e 99 60
e 99 59
e 99 76
e 99 85
e 99 22
e 99 41
e 97 82
e 97 67
e 97 71
e 97 37
e 97 63
e 97 20
e 97 32
e 97 4
e 97 77
e 97 96
e 97 34
e 97 42
e 97 91
e 97 69
e 97 70
e 97 66
e 97 26
e 97 65
e 97 53
e 97 74
e 97 23
e 97 39
e 97 1
e 97 68
e 97 88
e 97 7
e 97 51
e 97 60
e 97 76
e 97 46
e 97 22
e 10 82
e 10 67
e 10 37
e 10 57
e 10 86
e 10 62
e 10 13
e 10 63
e 10 20
e 10 47
e 10 4
e 10 96
e 10 42
e 10 69
e 10 5
e 10 70
e 10 84
e 10 66
e 10 26
e 10 65
e 10 95
e 10 27
e 10 74
e 10 23
e 10 39
e 10 1
e 10 68
e 10 60
e 10 59
e 10 46
e 10 52
e 10 22
e 10 73
e 10 41
e 82 67
e 82 57
e 82 62
e 82 13
e 82 63
e 82 20
e 82 32
e 82 47
e 82 4
e 82 77
e 82 96
e 82 91
e 82 69
e 82 5
e 82 84
e 82 66
e 82 55
e 82 65
e 82 53
e 82 95
e 82 27
e 82 39
e 82 1
e 82 88
e 82 7
e 82 51
e 82 60
e 82 59
e 82 76
e 82 46
e 82 52
e 82 22
e 82 41
e 67 71
e 67 37
e 67 57
e 67 86
e 67 62
e 67 13
e 67 63
e 67 47
e 67 77
e 67 96
e 67 34
e 67 42
e 67 91
e 67 69
e 67 70
e 67 66
e 67 26
e 67 53
e 67 95
e 67 27
e 67 23
e 67 39
e 67 1
e 67 88
e 67 7
e 67 51
e 67 60
e 67 59
e 67 76
e 67 46
e 67 85
e 67 41
e 71 37
e 71 57
e 71 86
e 71 62
e 71 20
e 71 4
e 71 77
e 71 42
e 71 91
e 71 69
e 71 70
e 71 84
e 71 66
e 71 55
e 71 26
e 71 65
e 71 53
e 71 27
e 71 23
e 71 39
e 71 68
e 71 7
e 71 51
e 71 76
e 71 46
e 71 85
e 71 22
e 71 73
e 71 41
e 37 57
e 37 86
e 37 62
e 37 13
e 37 63
e 37 20
e 37 4
e 37 77
e 37 34
e 37 42
e 37 5
e 37 70
e 37 84
e 37 66
e 37 65
e 37 53
e 37 95
e 37 74
e 37 23
e 37 1
e 37 88
e 37 7
e 37 51
e 37 60
e 37 76
e 37 46
e 37 85
e 37 52
e 57 86
e 57 13
e 57 63
e 57 20
e 57 32
e 57 77
e 57 96
e 57 34
e 57 42
e 57 91
e 57 5
e 57 84
e 57 55
e 57 26
e 57 65
e 57 74
e 57 23
e 57 88
e 57 7
e 57 51
e 57 60
e 57 59
e 57 76
e 57 46
e 57 85
e 57 52
e 57 41
e 86 62
e 86 63
e 86 20
e 86 96
e 86 91
e 86 70
e 86 55
e 86 26
e 86 53
e 86 95
e 86 27
e 86 74
e 86 39
e 86 88
e 86 60
e 86 59
e 86 76
e 86 22
e 86 73
e 86 41
e 62 13
e 62 63
e 62 32
e 62 96
e 62 34
e 62 42
e 62 91
e 62 5
e 62 70
e 62 84
e 62 55
e 62 27
e 62 74
e 62 23
e 62 39
e 62 1
e 62 68
e 62 7
e 62 51
e 62 76
e 62 46
e 62 85
e 62 52
e 62 22
e 62 41
e 13 63
e 13 20
e 13 32
e 13 47
e 13 77
e 13 96
e 13 34
e 13 42
e 13 91
e 13 5
e 13 70
e 13 84
e 13 55
e 13 65
e 13 53
e 13 95
e 13 74
e 13 39
e 13 68
e 13 7
e 13 51
e 13 59
e 13 76
e 13 85
e 13 52
e 13 22
e 13 73
e 63 20
e 63 47
e 63 4
e 63 96
e 63 42
e 63 91
e 63 70
e 63 84
e 63 65
e 63 27
e 63 23
e 63 68
e 63 88
e 63 7
e 63 51
e 63 76
e 63 85
e 63 52
e 63 22
e 63 73
e 63 41
e 20 47
e 20 4
e 20 34
e 20 42
e 20 91
e 20 5
e 20 70
e 20 84
e 20 66
e 20 26
e 20 53
e 20 95
e 20 74
e 20 23
e 20 39
e 20 1
e 20 68
e 20 88
e 20 7
e 20 60
e 20 59
e 20 46
e 20 22
e 20 73
e 20 41
e 32 47
e 32 4
e 32 96
e 32 34
e 32 91
e 32 69
e 32 5
e 32 84
e 32 66
e 32 55
e 32 26
e 32 53
e 32 95
e 32 27
e 32 74
e 32 23
e 32 88
e 32 7
e 32 51
e 32 60
e 32 76
e 32 46
e 32 85
e 32 52
e 32 22
e 32 41
e 47 4
e 47 77
e 47 34
e 47 91
e 47 69
e 47 5
e 47 70
e 47 55
e 47 26
e 47 95
e 47 27
e 47 74
e 47 23
e 47 39
e 47 1
e 47 88
e 47 7
e 47 51
e 47 60
e 47 59
e 47 46
e 47 85
e 47 22
e 47 41
e 4 77
e 4 96
e 4 42
e 4 91
e 4 84
e 4 66
e 4 26
e 4 65
e 4 27
e 4 74
e 4 39
e 4 68
e 4 51
e 4 59
e 4 46
e 4 85
e 4 52
e 4 41
e 77 96
e 77 34
e 77 69
e 77 5
e 77 70
e 77 66
e 77 26
e 77 53
e 77 95
e 77 27
e 77 74
e 77 23
e 77 39
e 77 1
e 77 68
e 77 7
e 77 51
e 77 60
e 77 46
e 77 85
e 77 52
e 77 22
e 77 41
e 96 34
e 96 42
e 96 91
e 96 69
e 96 84
e 96 66
e 96 26
e 96 53
e 96 95
e 96 23
e 96 39
e 96 1
e 96 68
e 96 88
e 96 7
e 96 51
e 96 60
e 96 59
e 96 76
e 96 85
e 96 22
e 96 73
e 34 91
e 34 69
e 34 5
e 34 70
e 34 84
e 34 66
e 34 26
e 34 53
e 34 95
e 34 27
e 34 74
e 34 23
e 34 39
e 34 1
e 34 88
e 34 7
e 34 60
e 34 59
e 34 76
e 34 46
e 34 22
e 34 73
e 34 41
e 42 91
e 42 69
e 42 84
e 42 66
e 42 26
e 42 65
e 42 53
e 42 27
e 42 1
e 42 68
e 42 88
e 42 7
e 42 51
e 42 60
e 42 76
e 42 46
e 42 85
e 42 52
e 42 22
e 42 73
e 91 5
e 91 70
e 91 84
e 91 26
e 91 65
e 91 95
e 91 27
e 91 74
e 91 1
e 91 88
e 91 7
e 91 51
e 91 60
e 91 76
e 91 46
e 91 85
e 91 22
e 91 73
e 69 5
e 69 70
e 69 84
e 69 55
e 69 65
e 69 53
e 69 95
e 69 27
e 69 74
e 69 23
e 69 39
e 69 1
e 69 68
e 69 7
e 69 51
e 69 60
e 69 76
e 69 46
e 69 85
e 69 52
e 69 73
e 5 84
e 5 26
e 5 65
e 5 53
e 5 95
e 5 74
e 5 39
e 5 68
e 5 7
e 5 51
e 5 60
e 5 59
e 5 76
e 5 46
e 5 85
e 5 22
e 5 41
e 70 84
e 70 66
e 70 55
e 70 65
e 70 53
e 70 95
e 70 74
e 70 39
e 70 1
e 70 68
e 70 88
e 70 59
e 70 76
e 70 52
e 70 73
e 70 41
e 84 66
e 84 55
e 84 26
e 84 65
e 84 53
e 84 27
e 84 39
e 84 1
e 84 88
e 84 7
e 84 51
e 84 85
e 84 52
e 84 22
e 84 41
e 66 55
e 66 26
e 66 53
e 66 95
e 66 74
e 66 23
e 66 39
e 66 88
e 66 7
e 66 51
e 66 60
e 66 76
e 66 46
e 66 85
e 66 52
e 66 22
e 66 73
e 66 41
e 55 26
e 55 65
e 55 95
e 55 27
e 55 23
e 55 1
e 55 68
e 55 88
e 55 51
e 55 60
e 55 59
e 55 76
e 55 46
e 55 85
e 55 52
e 55 22
e 55 73
e 55 41
e 26 65
e 26 74
e 26 23
e 26 39
e 26 68
e 26 88
e 26 60
e 26 59
e 26 46
e 26 22
e 26 73
e 65 53
e 65 74
e 65 23
e 65 88
e 65 7
e 65 46
e 65 85
e 65 52
e 65 73
e 65 41
e 53 95
e 53 27
e 53 74
e 53 23
e 53 39
e 53 68
e 53 51
e 53 60
e 53 46
e 53 52
e 53 41
e 95 27
e 95 74
e 95 39
e 95 7
e 95 51
e 95 60
e 95 59
e 95 76
e 95 46
e 95 22
e 95 41
e 27 23
e 27 39
e 27 1
e 27 68
e 27 88
e 27 7
e 27 51
e 27 60
e 27 59
e 27 76
e 27 52
e 27 73
e 27 41
e 74 23
e 74 39
e 74 1
e 74 68
e 74 88
e 74 51
e 74 59
e 74 46
e 74 85
e 74 52
e 74 41
e 23 39
e 23 1
e 23 68
e 23 59
e 23 85
e 23 52
e 23 22
e 23 73
e 23 41
e 39 1
e 39 88
e 39 7
e 39 46
e 39 73
e 39 41
e 1 68
e 1 7
e 1 51
e 1 59
e 1 76
e 1 85
e 1 52
e 1 22
e 1 41
e 68 88
e 68 7
e 68 51
e 68 60
e 68 76
e 68 85
e 68 52
e 68 22
e 68 41
e 88 7
e 88 51
e 88 59
e 88 76
e 88 46
e 88 85
e 88 52
e 88 22
e 88 73
e 88 41
e 7 60
e 7 59
e 7 76
e 7 85
e 7 52
e 7 41
e 51 76
e 51 22
e 51 41
e 60 59
e 60 76
e 60 46
e 60 85
e 60 22
e 60 41
e 59 76
e 59 52
e 59 22
e 59 41
e 76 46
e 76 85
e 76 22
e 46 52
e 46 22
e 46 41
e 85 22
e 85 73
e 85 41
e 52 73
e 52 41
e 22 73
e 22 41
e 73 41
